Maximize
score: + 18761 c0 + 196 c1 + 14 c2 + 37 c3 + 36 c4 + 81 c5 + 49 c6 + 36 c7 + 39 c8 + 49 c9 + 51 c10 + 76 c11 + 57 c12 + 81 c13 + 35 c14 + 400 c15 + 63 c16 + 16 c17 + 72 c18 + 12 c19 + 48 c20 + 50 c21 + 169 c22 + 74 c23 + 157 c24 + 196 c25 + 441 c26 + 126 c27 + 103 c28 + 864 c29 + 480 c30 + 335 c31 + 1407 c32 + 54 c33 + 34 c34 + 72 c35 + 190 c36 + 45 c37 + 92 c38 + 210 c39 + 3796 c40 + 43 c41 + 36 c42 + 1898 c43 + 11096 c44 + 361 c45 + 648 c46 + 654 c47 + 56 c48 + 119 c49 + 64 c50 + 290 c51 + 53 c52 + 1204 c53 + 101 c54 + 50 c55 + 132 c56 + 144 c57 + 40 c58 + 420 c59 + 7488 c60 + 798 c61 + 83 c62 + 462 c63

Subject To
index_0: s0 + s1 + s2 + s3 + s4 + s5 + s6 + s7 + s8 + s9 + s10 + s11 + s12 + s13 + s14 + s15 + s16 + s17 + s18 + s19 + s20 + s21 + s22 + s23 + s24 + s25 + s26 + s27 + s28 + s29 + s30 + s32 + s33 + s34 + s35 + s36 + s37 + s38 + s39 + s40 + s41 + s42 + s43 + s44 + s46 + s48 + s49 + s50 + s52 + s54 + s55 + s56 + s57 + s58 + s59 + s60 + s61 + s62 + s63 + s65 + s66 + s67 + s69 + s71 + s72 + s73 + s74 + s75 + s76 + s78 + s80 + s81 + s83 + s84 + s86 + s87 + s88 + s89 + s90 + s91 + s92 + s93 + s94 + s95 + s96 + s97 + s98 + s99 + s100 + s101 + s102 + s103 + s104 + s105 + s106 + s107 + s108 + s109 + s110 + s111 + s112 + s113 + s114 + s115 + s116 + s117 + s118 + s119 + s120 + s121 + s122 + s123 + s124 + s125 + s126 + s127 + s128 + s129 + s130 + s131 + s132 + s133 + s134 + s135 + s136 + s137 + s138 + s139 + s140 + s141 + s142 + s143 + s144 + s145 - c0 >= 0
index_1: s10 + s36 + s37 + s44 + s112 + s129 - c1 >= 0
index_2: s8 + s23 + s24 + s26 + s29 + s128 + s129 - c2 >= 0
index_3: s40 + s42 + s43 + s60 + s61 + s62 + s63 - c3 >= 0
index_4: s24 + s114 + s130 + s131 + s134 + s136 - c4 >= 0
index_5: s13 + s110 + s111 + s112 + s113 + s114 + s115 + s143 - c5 >= 0
index_6: s0 + s41 + s45 + s48 + s50 + s52 - c6 >= 0
index_7: s64 + s87 + s96 + s106 + s112 + s141 - c7 >= 0
index_8: s9 + s41 + s42 + s44 + s54 + s127 - c8 >= 0
index_9: s10 + s36 + s37 + s44 + s112 + s129 - c9 >= 0
index_10: s3 + s6 + s14 + s90 + s100 + s103 + s129 + s133 + s143 - c10 >= 0
index_11: s95 + s110 + s133 + s137 + s143 - c11 >= 0
index_12: s21 + s23 + s78 + s80 + s98 + s114 + s129 + s130 - c12 >= 0
index_13: s58 + s59 + s60 + s67 + s78 + s81 + s84 + s104 - c13 >= 0
index_14: s13 + s19 + s138 + s142 + s143 - c14 >= 0
index_15: s2 + s46 + s49 + s51 + s53 + s54 + s59 + s63 + s81 + s90 + s91 + s102 + s104 + s105 + s106 + s125 + s139 - c15 >= 0
index_16: s22 + s39 + s40 + s97 + s107 + s117 - c16 >= 0
index_17: s102 + s115 + s125 + s127 + s133 + s137 + s145 - c17 >= 0
index_18: s1 + s4 + s42 + s118 + s122 + s132 + s139 - c18 >= 0
index_19: s13 + s90 + s114 + s135 + s145 - c19 >= 0
index_20: s17 + s90 + s102 + s109 + s110 + s114 + s115 + s125 + s126 + s137 + s143 - c20 >= 0
index_21: s8 + s109 + s120 + s125 + s126 + s127 + s135 - c21 >= 0
index_22: s18 + s59 + s60 + s61 + s62 + s81 + s84 + s90 + s101 + s102 + s106 + s131 + s141 - c22 >= 0
index_23: s9 + s18 + s41 + s42 + s44 + s45 + s48 + s107 - c23 >= 0
index_24: s22 + s40 + s42 + s43 + s60 + s84 + s87 + s93 + s107 + s117 + s118 + s141 - c24 >= 0
index_25: s0 + s1 + s12 + s13 + s22 + s41 + s45 + s48 + s50 + s52 + s97 + s117 + s122 - c25 >= 0
index_26: s1 + s7 + s9 + s11 + s13 + s21 + s23 + s32 + s54 + s76 + s92 + s94 + s95 + s96 + s106 + s110 + s113 + s137 + s141 + s143 - c26 >= 0
index_27: s8 + s10 + s12 + s111 + s126 + s129 + s130 + s135 + s136 + s137 + s138 + s139 + s144 + s145 - c27 >= 0
index_28: s12 + s13 + s18 + s42 + s55 + s57 + s61 + s93 + s105 + s113 + s130 + s136 + s138 + s141 + s142 + s144 - c28 >= 0
index_29: s8 + s10 + s16 + s17 + s25 + s39 + s62 + s90 + s107 + s129 + s137 + s143 + s144 + s145 - c29 >= 0
index_30: s1 + s6 + s19 + s20 + s21 + s22 + s92 + s94 + s97 + s114 - c30 >= 0
index_31: s4 + s17 + s107 + s109 + s117 - c31 >= 0
index_32: s0 + s10 + s11 + s37 + s39 + s42 + s43 + s56 + s57 + s104 + s112 + s120 + s125 + s126 + s127 + s129 + s139 - c32 >= 0
index_33: s4 + s7 + s9 + s10 + s42 + s92 + s111 + s113 + s127 + s135 + s138 - c33 >= 0
index_34: s1 + s7 + s32 + s92 + s94 + s96 + s110 + s113 - c34 >= 0
index_35: s8 + s109 + s120 + s125 + s126 + s127 + s129 + s135 - c35 >= 0
index_36: s10 + s36 + s39 + s44 + s60 + s84 + s94 + s95 + s106 + s117 + s137 + s141 + s143 + s144 - c36 >= 0
index_37: s10 + s34 + s111 + s112 + s113 - c37 >= 0
index_38: s0 + s1 + s2 + s6 + s11 + s13 + s16 + s17 + s107 + s119 + s130 + s139 + s141 + s142 - c38 >= 0
index_39: s0 + s1 + s12 + s13 + s22 + s41 + s45 + s48 + s50 + s52 + s97 + s117 + s122 - c39 >= 0
index_40: s25 + s28 + s29 + s30 + s45 + s48 + s50 + s52 + s55 + s64 + s65 + s67 + s68 + s70 + s71 + s72 + s74 + s76 + s78 + s79 + s81 + s82 + s84 + s85 + s87 + s115 - c40 >= 0
index_41: s2 + s7 + s92 + s128 + s132 - c41 >= 0
index_42: s18 + s39 + s45 + s48 + s50 + s52 - c42 >= 0
index_43: s7 + s32 + s44 + s47 + s51 + s53 + s58 + s59 + s60 + s61 + s80 + s103 + s131 - c43 >= 0
index_44: s0 + s1 + s4 + s6 + s8 + s9 + s10 + s11 + s12 + s13 + s14 + s17 + s21 + s22 + s26 + s27 + s31 + s33 + s34 + s35 + s36 + s39 + s42 + s43 + s56 + s57 + s63 + s66 + s69 + s73 + s75 + s77 + s86 + s89 + s90 + s91 + s94 + s95 + s96 + s99 + s100 + s104 + s105 + s106 + s107 + s108 + s109 + s110 + s111 + s112 + s113 + s114 + s116 + s118 + s119 + s122 + s123 + s124 + s125 + s126 + s127 + s128 + s129 + s130 + s132 + s133 + s134 + s135 + s136 + s137 + s138 + s141 + s142 + s143 + s144 + s145 - c44 >= 0
index_45: s7 + s8 + s11 + s16 + s17 + s62 + s90 + s92 + s101 + s102 + s106 + s114 + s115 + s125 + s127 + s134 + s136 + s142 + s144 - c45 >= 0
index_46: s0 + s2 + s6 + s10 + s11 + s16 + s18 + s22 + s39 + s40 + s41 + s42 + s44 + s94 + s97 + s107 + s108 + s117 + s118 + s119 + s132 + s142 - c46 >= 0
index_47: s18 + s43 + s59 + s60 + s61 + s62 + s63 + s81 + s83 + s84 + s90 + s91 + s101 + s102 + s104 + s105 + s106 + s124 + s126 + s131 + s133 + s134 + s141 - c47 >= 0
index_48: s25 + s60 + s84 + s95 + s104 + s141 + s145 - c48 >= 0
index_49: s18 + s19 + s22 + s23 + s64 + s87 + s97 + s106 + s107 + s108 + s112 + s118 + s141 - c49 >= 0
index_50: s16 + s58 + s104 + s105 + s121 + s124 - c50 >= 0
index_51: s2 + s5 + s6 + s7 + s9 + s11 + s12 + s13 + s16 + s17 + s18 + s54 + s57 + s59 + s61 + s81 + s91 + s92 + s94 + s99 + s100 + s107 + s108 + s110 + s113 + s114 + s115 + s119 + s120 + s122 + s124 + s125 + s129 + s135 + s139 + s141 + s142 + s143 + s144 + s145 - c51 >= 0
index_52: s9 + s10 + s32 + s34 + s37 + s39 + s120 - c52 >= 0
index_53: s1 + s6 + s14 + s17 + s18 + s19 + s20 + s21 + s22 + s23 + s32 + s33 + s44 + s45 + s67 + s69 + s74 + s77 + s78 + s80 + s83 + s86 + s92 + s94 + s96 + s97 + s102 + s105 + s106 + s111 + s114 + s135 + s137 + s138 + s142 + s143 + s145 - c53 >= 0
index_54: s10 + s37 + s44 + s112 + s126 + s129 - c54 >= 0
index_55: s0 + s1 + s92 + s94 + s96 + s118 + s143 - c55 >= 0
index_56: s21 + s23 + s78 + s80 + s92 + s98 + s114 + s129 + s130 + s143 - c56 >= 0
index_57: s0 + s5 + s12 + s14 + s17 + s112 + s118 + s119 + s120 + s122 + s126 + s129 - c57 >= 0
index_58: s22 + s40 + s97 + s107 - c58 >= 0
index_59: s6 + s9 + s11 + s13 + s17 + s57 + s92 + s107 + s108 + s110 + s111 + s119 + s129 + s141 - c59 >= 0
index_60: s6 + s8 + s9 + s11 + s16 + s20 + s21 + s22 + s23 + s25 + s27 + s32 + s33 + s34 + s35 + s37 + s39 + s40 + s43 + s54 + s55 + s56 + s57 + s59 + s60 + s61 + s62 + s67 + s74 + s77 + s78 + s81 + s84 + s87 + s91 + s94 + s95 + s97 + s99 + s105 + s106 + s107 + s110 + s111 + s112 + s114 + s117 + s118 + s126 + s130 + s131 + s132 + s133 + s139 - c60 >= 0
index_61: s11 + s12 + s17 + s108 + s130 + s137 + s144 - c61 >= 0
index_62: s12 + s13 + s22 + s45 + s48 + s52 + s97 - c62 >= 0
index_63: s1 + s7 + s9 + s11 + s13 + s21 + s23 + s32 + s54 + s76 + s92 + s94 + s95 + s96 + s106 + s110 + s113 + s137 + s141 + s143 - c63 >= 0
length: 85 s0 + 146 s1 + 105 s2 + 8 s3 + 111 s4 + 35 s5 + 162 s6 + 97 s7 + 150 s8 + 178 s9 + 169 s10 + 92 s11 + 96 s12 + 174 s13 + 122 s14 + 26 s15 + 207 s16 + 133 s17 + 149 s18 + 82 s19 + 146 s20 + 113 s21 + 231 s22 + 161 s23 + 42 s24 + 34 s25 + 25 s26 + 82 s27 + 19 s28 + 42 s29 + 33 s30 + 1 s31 + 136 s32 + 39 s33 + 62 s34 + 101 s35 + 84 s36 + 120 s37 + 1 s38 + 219 s39 + 129 s40 + 86 s41 + 198 s42 + 93 s43 + 93 s44 + 46 s45 + 5 s46 + 1 s47 + 46 s48 + 5 s49 + 46 s50 + 5 s51 + 46 s52 + 5 s53 + 237 s54 + 24 s55 + 93 s56 + 105 s57 + 105 s58 + 54 s59 + 81 s60 + 106 s61 + 82 s62 + 65 s63 + 9 s64 + 13 s65 + 12 s66 + 25 s67 + 1 s68 + 56 s69 + 1 s70 + 20 s71 + 31 s72 + 24 s73 + 64 s74 + 6 s75 + 75 s76 + 9 s77 + 42 s78 + 1 s79 + 46 s80 + 40 s81 + 1 s82 + 40 s83 + 62 s84 + 1 s85 + 40 s86 + 128 s87 + 4 s88 + 4 s89 + 157 s90 + 83 s91 + 163 s92 + 26 s93 + 114 s94 + 102 s95 + 89 s96 + 130 s97 + 28 s98 + 49 s99 + 31 s100 + 70 s101 + 132 s102 + 124 s103 + 129 s104 + 175 s105 + 185 s106 + 191 s107 + 82 s108 + 125 s109 + 119 s110 + 105 s111 + 178 s112 + 119 s113 + 109 s114 + 91 s115 + 4 s116 + 146 s117 + 188 s118 + 74 s119 + 136 s120 + 35 s121 + 171 s122 + 13 s123 + 59 s124 + 83 s125 + 111 s126 + 127 s127 + 35 s128 + 161 s129 + 107 s130 + 58 s131 + 172 s132 + 108 s133 + 54 s134 + 147 s135 + 76 s136 + 230 s137 + 91 s138 + 158 s139 + 11 s140 + 142 s141 + 93 s142 + 182 s143 + 84 s144 + 183 s145 <= 6337



Binary
c0
c1
c2
c3
c4
c5
c6
c7
c8
c9
c10
c11
c12
c13
c14
c15
c16
c17
c18
c19
c20
c21
c22
c23
c24
c25
c26
c27
c28
c29
c30
c31
c32
c33
c34
c35
c36
c37
c38
c39
c40
c41
c42
c43
c44
c45
c46
c47
c48
c49
c50
c51
c52
c53
c54
c55
c56
c57
c58
c59
c60
c61
c62
c63
s0
s1
s2
s3
s4
s5
s6
s7
s8
s9
s10
s11
s12
s13
s14
s15
s16
s17
s18
s19
s20
s21
s22
s23
s24
s25
s26
s27
s28
s29
s30
s31
s32
s33
s34
s35
s36
s37
s38
s39
s40
s41
s42
s43
s44
s45
s46
s47
s48
s49
s50
s51
s52
s53
s54
s55
s56
s57
s58
s59
s60
s61
s62
s63
s64
s65
s66
s67
s68
s69
s70
s71
s72
s73
s74
s75
s76
s77
s78
s79
s80
s81
s82
s83
s84
s85
s86
s87
s88
s89
s90
s91
s92
s93
s94
s95
s96
s97
s98
s99
s100
s101
s102
s103
s104
s105
s106
s107
s108
s109
s110
s111
s112
s113
s114
s115
s116
s117
s118
s119
s120
s121
s122
s123
s124
s125
s126
s127
s128
s129
s130
s131
s132
s133
s134
s135
s136
s137
s138
s139
s140
s141
s142
s143
s144
s145
End